\ Model VRPmodel
\ LP format - for model browsing. Use MPS format to capture full model detail.
Minimize
  27.73084924772409 X_0,1,0 + 27.73084924772409 X_0,1,1
   + 20.6155281280883 X_0,2,0 + 20.6155281280883 X_0,2,1
   + 29.06888370749727 X_0,3,0 + 29.06888370749727 X_0,3,1
   + 25.61249694973139 X_0,4,0 + 25.61249694973139 X_0,4,1
   + 15.13274595042156 X_0,5,0 + 15.13274595042156 X_0,5,1
   + 25.29822128134704 X_0,6,0 + 25.29822128134704 X_0,6,1
   + 26.90724809414742 X_0,7,0 + 26.90724809414742 X_0,7,1
   + 11.6619037896906 X_0,8,0 + 11.6619037896906 X_0,8,1
   + 27.73084924772409 X_1,0,0 + 27.73084924772409 X_1,0,1
   + 8.602325267042627 X_1,2,0 + 8.602325267042627 X_1,2,1
   + 11.6619037896906 X_1,3,0 + 11.6619037896906 X_1,3,1
   + 12.0415945787923 X_1,4,0 + 12.0415945787923 X_1,4,1
   + 14.14213562373095 X_1,5,0 + 14.14213562373095 X_1,5,1
   + 48.83646178829912 X_1,6,0 + 48.83646178829912 X_1,6,1
   + 7.810249675906654 X_1,7,0 + 7.810249675906654 X_1,7,1
   + 23.43074902771996 X_1,8,0 + 23.43074902771996 X_1,8,1
   + 27.73084924772409 X_1,9,0 + 27.73084924772409 X_1,9,1
   + 20.6155281280883 X_2,0,0 + 20.6155281280883 X_2,0,1
   + 8.602325267042627 X_2,1,0 + 8.602325267042627 X_2,1,1
   + 17.0293863659264 X_2,3,0 + 17.0293863659264 X_2,3,1
   + 15.52417469626002 X_2,4,0 + 15.52417469626002 X_2,4,1
   + 5.830951894845301 X_2,5,0 + 5.830951894845301 X_2,5,1
   + 40.31128874149275 X_2,6,0 + 40.31128874149275 X_2,6,1 + 13 X_2,7,0
   + 13 X_2,7,1 + 14.86606874731851 X_2,8,0 + 14.86606874731851 X_2,8,1
   + 20.6155281280883 X_2,9,0 + 20.6155281280883 X_2,9,1
   + 29.06888370749727 X_3,0,0 + 29.06888370749727 X_3,0,1
   + 11.6619037896906 X_3,1,0 + 11.6619037896906 X_3,1,1
   + 17.0293863659264 X_3,2,0 + 17.0293863659264 X_3,2,1
   + 3.605551275463989 X_3,4,0 + 3.605551275463989 X_3,4,1
   + 20.39607805437114 X_3,5,0 + 20.39607805437114 X_3,5,1
   + 53.33854141237835 X_3,6,0 + 53.33854141237835 X_3,6,1
   + 4.123105625617661 X_3,7,0 + 4.123105625617661 X_3,7,1
   + 29.41088233970548 X_3,8,0 + 29.41088233970548 X_3,8,1
   + 29.06888370749727 X_3,9,0 + 29.06888370749727 X_3,9,1
   + 25.61249694973139 X_4,0,0 + 25.61249694973139 X_4,0,1
   + 12.0415945787923 X_4,1,0 + 12.0415945787923 X_4,1,1
   + 15.52417469626002 X_4,2,0 + 15.52417469626002 X_4,2,1
   + 3.605551275463989 X_4,3,0 + 3.605551275463989 X_4,3,1
   + 18.02775637731995 X_4,5,0 + 18.02775637731995 X_4,5,1
   + 50.11985634456667 X_4,6,0 + 50.11985634456667 X_4,6,1
   + 4.47213595499958 X_4,7,0 + 4.47213595499958 X_4,7,1
   + 26.68332812825267 X_4,8,0 + 26.68332812825267 X_4,8,1
   + 25.61249694973139 X_4,9,0 + 25.61249694973139 X_4,9,1
   + 15.13274595042156 X_5,0,0 + 15.13274595042156 X_5,0,1
   + 14.14213562373095 X_5,1,0 + 14.14213562373095 X_5,1,1
   + 5.830951894845301 X_5,2,0 + 5.830951894845301 X_5,2,1
   + 20.39607805437114 X_5,3,0 + 20.39607805437114 X_5,3,1
   + 18.02775637731995 X_5,4,0 + 18.02775637731995 X_5,4,1
   + 34.71310991541957 X_5,6,0 + 34.71310991541957 X_5,6,1
   + 16.76305461424021 X_5,7,0 + 16.76305461424021 X_5,7,1
   + 9.433981132056603 X_5,8,0 + 9.433981132056603 X_5,8,1
   + 15.13274595042156 X_5,9,0 + 15.13274595042156 X_5,9,1
   + 25.29822128134704 X_6,0,0 + 25.29822128134704 X_6,0,1
   + 48.83646178829912 X_6,1,0 + 48.83646178829912 X_6,1,1
   + 40.31128874149275 X_6,2,0 + 40.31128874149275 X_6,2,1
   + 53.33854141237835 X_6,3,0 + 53.33854141237835 X_6,3,1
   + 50.11985634456667 X_6,4,0 + 50.11985634456667 X_6,4,1
   + 34.71310991541957 X_6,5,0 + 34.71310991541957 X_6,5,1
   + 50.47771785649585 X_6,7,0 + 50.47771785649585 X_6,7,1
   + 25.45584412271571 X_6,8,0 + 25.45584412271571 X_6,8,1
   + 25.29822128134704 X_6,9,0 + 25.29822128134704 X_6,9,1
   + 26.90724809414742 X_7,0,0 + 26.90724809414742 X_7,0,1
   + 7.810249675906654 X_7,1,0 + 7.810249675906654 X_7,1,1 + 13 X_7,2,0
   + 13 X_7,2,1 + 4.123105625617661 X_7,3,0 + 4.123105625617661 X_7,3,1
   + 4.47213595499958 X_7,4,0 + 4.47213595499958 X_7,4,1
   + 16.76305461424021 X_7,5,0 + 16.76305461424021 X_7,5,1
   + 50.47771785649585 X_7,6,0 + 50.47771785649585 X_7,6,1 + 26 X_7,8,0
   + 26 X_7,8,1 + 26.90724809414742 X_7,9,0 + 26.90724809414742 X_7,9,1
   + 11.6619037896906 X_8,0,0 + 11.6619037896906 X_8,0,1
   + 23.43074902771996 X_8,1,0 + 23.43074902771996 X_8,1,1
   + 14.86606874731851 X_8,2,0 + 14.86606874731851 X_8,2,1
   + 29.41088233970548 X_8,3,0 + 29.41088233970548 X_8,3,1
   + 26.68332812825267 X_8,4,0 + 26.68332812825267 X_8,4,1
   + 9.433981132056603 X_8,5,0 + 9.433981132056603 X_8,5,1
   + 25.45584412271571 X_8,6,0 + 25.45584412271571 X_8,6,1 + 26 X_8,7,0
   + 26 X_8,7,1 + 11.6619037896906 X_8,9,0 + 11.6619037896906 X_8,9,1
   + 27.73084924772409 X_9,1,0 + 27.73084924772409 X_9,1,1
   + 20.6155281280883 X_9,2,0 + 20.6155281280883 X_9,2,1
   + 29.06888370749727 X_9,3,0 + 29.06888370749727 X_9,3,1
   + 25.61249694973139 X_9,4,0 + 25.61249694973139 X_9,4,1
   + 15.13274595042156 X_9,5,0 + 15.13274595042156 X_9,5,1
   + 25.29822128134704 X_9,6,0 + 25.29822128134704 X_9,6,1
   + 26.90724809414742 X_9,7,0 + 26.90724809414742 X_9,7,1
   + 11.6619037896906 X_9,8,0 + 11.6619037896906 X_9,8,1
Subject To
 Visit_1: Z_1,0 + Z_1,1 = 1
 Visit_2: Z_2,0 + Z_2,1 = 1
 Visit_3: Z_3,0 + Z_3,1 = 1
 Visit_4: Z_4,0 + Z_4,1 = 1
 Visit_5: Z_5,0 + Z_5,1 = 1
 Visit_6: Z_6,0 + Z_6,1 = 1
 Visit_7: Z_7,0 + Z_7,1 = 1
 Visit_8: Z_8,0 + Z_8,1 = 1
 VisitDepot_0: Z_0,0 + Z_0,1 = 2
 VisitDepot2_0: Z_9,0 + Z_9,1 = 2
 ArcIn_8,0: X_0,1,0 - X_1,0,0 - X_1,2,0 - X_1,3,0 - X_1,4,0 - X_1,5,0
   - X_1,6,0 - X_1,7,0 - X_1,8,0 - X_1,9,0 + X_2,1,0 + X_3,1,0 + X_4,1,0
   + X_5,1,0 + X_6,1,0 + X_7,1,0 + X_8,1,0 + X_9,1,0 = 0
 ArcIn_8,1: X_0,1,1 - X_1,0,1 - X_1,2,1 - X_1,3,1 - X_1,4,1 - X_1,5,1
   - X_1,6,1 - X_1,7,1 - X_1,8,1 - X_1,9,1 + X_2,1,1 + X_3,1,1 + X_4,1,1
   + X_5,1,1 + X_6,1,1 + X_7,1,1 + X_8,1,1 + X_9,1,1 = 0
 ArcIn_8,0: X_0,2,0 + X_1,2,0 - X_2,0,0 - X_2,1,0 - X_2,3,0 - X_2,4,0
   - X_2,5,0 - X_2,6,0 - X_2,7,0 - X_2,8,0 - X_2,9,0 + X_3,2,0 + X_4,2,0
   + X_5,2,0 + X_6,2,0 + X_7,2,0 + X_8,2,0 + X_9,2,0 = 0
 ArcIn_8,1: X_0,2,1 + X_1,2,1 - X_2,0,1 - X_2,1,1 - X_2,3,1 - X_2,4,1
   - X_2,5,1 - X_2,6,1 - X_2,7,1 - X_2,8,1 - X_2,9,1 + X_3,2,1 + X_4,2,1
   + X_5,2,1 + X_6,2,1 + X_7,2,1 + X_8,2,1 + X_9,2,1 = 0
 ArcIn_8,0: X_0,3,0 + X_1,3,0 + X_2,3,0 - X_3,0,0 - X_3,1,0 - X_3,2,0
   - X_3,4,0 - X_3,5,0 - X_3,6,0 - X_3,7,0 - X_3,8,0 - X_3,9,0 + X_4,3,0
   + X_5,3,0 + X_6,3,0 + X_7,3,0 + X_8,3,0 + X_9,3,0 = 0
 ArcIn_8,1: X_0,3,1 + X_1,3,1 + X_2,3,1 - X_3,0,1 - X_3,1,1 - X_3,2,1
   - X_3,4,1 - X_3,5,1 - X_3,6,1 - X_3,7,1 - X_3,8,1 - X_3,9,1 + X_4,3,1
   + X_5,3,1 + X_6,3,1 + X_7,3,1 + X_8,3,1 + X_9,3,1 = 0
 ArcIn_8,0: X_0,4,0 + X_1,4,0 + X_2,4,0 + X_3,4,0 - X_4,0,0 - X_4,1,0
   - X_4,2,0 - X_4,3,0 - X_4,5,0 - X_4,6,0 - X_4,7,0 - X_4,8,0 - X_4,9,0
   + X_5,4,0 + X_6,4,0 + X_7,4,0 + X_8,4,0 + X_9,4,0 = 0
 ArcIn_8,1: X_0,4,1 + X_1,4,1 + X_2,4,1 + X_3,4,1 - X_4,0,1 - X_4,1,1
   - X_4,2,1 - X_4,3,1 - X_4,5,1 - X_4,6,1 - X_4,7,1 - X_4,8,1 - X_4,9,1
   + X_5,4,1 + X_6,4,1 + X_7,4,1 + X_8,4,1 + X_9,4,1 = 0
 ArcIn_8,0: X_0,5,0 + X_1,5,0 + X_2,5,0 + X_3,5,0 + X_4,5,0 - X_5,0,0
   - X_5,1,0 - X_5,2,0 - X_5,3,0 - X_5,4,0 - X_5,6,0 - X_5,7,0 - X_5,8,0
   - X_5,9,0 + X_6,5,0 + X_7,5,0 + X_8,5,0 + X_9,5,0 = 0
 ArcIn_8,1: X_0,5,1 + X_1,5,1 + X_2,5,1 + X_3,5,1 + X_4,5,1 - X_5,0,1
   - X_5,1,1 - X_5,2,1 - X_5,3,1 - X_5,4,1 - X_5,6,1 - X_5,7,1 - X_5,8,1
   - X_5,9,1 + X_6,5,1 + X_7,5,1 + X_8,5,1 + X_9,5,1 = 0
 ArcIn_8,0: X_0,6,0 + X_1,6,0 + X_2,6,0 + X_3,6,0 + X_4,6,0 + X_5,6,0
   - X_6,0,0 - X_6,1,0 - X_6,2,0 - X_6,3,0 - X_6,4,0 - X_6,5,0 - X_6,7,0
   - X_6,8,0 - X_6,9,0 + X_7,6,0 + X_8,6,0 + X_9,6,0 = 0
 ArcIn_8,1: X_0,6,1 + X_1,6,1 + X_2,6,1 + X_3,6,1 + X_4,6,1 + X_5,6,1
   - X_6,0,1 - X_6,1,1 - X_6,2,1 - X_6,3,1 - X_6,4,1 - X_6,5,1 - X_6,7,1
   - X_6,8,1 - X_6,9,1 + X_7,6,1 + X_8,6,1 + X_9,6,1 = 0
 ArcIn_8,0: X_0,7,0 + X_1,7,0 + X_2,7,0 + X_3,7,0 + X_4,7,0 + X_5,7,0
   + X_6,7,0 - X_7,0,0 - X_7,1,0 - X_7,2,0 - X_7,3,0 - X_7,4,0 - X_7,5,0
   - X_7,6,0 - X_7,8,0 - X_7,9,0 + X_8,7,0 + X_9,7,0 = 0
 ArcIn_8,1: X_0,7,1 + X_1,7,1 + X_2,7,1 + X_3,7,1 + X_4,7,1 + X_5,7,1
   + X_6,7,1 - X_7,0,1 - X_7,1,1 - X_7,2,1 - X_7,3,1 - X_7,4,1 - X_7,5,1
   - X_7,6,1 - X_7,8,1 - X_7,9,1 + X_8,7,1 + X_9,7,1 = 0
 ArcIn_8,0: X_0,8,0 + X_1,8,0 + X_2,8,0 + X_3,8,0 + X_4,8,0 + X_5,8,0
   + X_6,8,0 + X_7,8,0 - X_8,0,0 - X_8,1,0 - X_8,2,0 - X_8,3,0 - X_8,4,0
   - X_8,5,0 - X_8,6,0 - X_8,7,0 - X_8,9,0 + X_9,8,0 = 0
 ArcIn_8,1: X_0,8,1 + X_1,8,1 + X_2,8,1 + X_3,8,1 + X_4,8,1 + X_5,8,1
   + X_6,8,1 + X_7,8,1 - X_8,0,1 - X_8,1,1 - X_8,2,1 - X_8,3,1 - X_8,4,1
   - X_8,5,1 - X_8,6,1 - X_8,7,1 - X_8,9,1 + X_9,8,1 = 0
 ArcOut_8,0: X_0,0,0 + X_1,0,0 + X_2,0,0 + X_3,0,0 + X_4,0,0 + X_5,0,0
   + X_6,0,0 + X_7,0,0 + X_8,0,0 + X_9,0,0 - Z_0,0 = 0
 ArcOut_8,1: X_0,0,1 + X_1,0,1 + X_2,0,1 + X_3,0,1 + X_4,0,1 + X_5,0,1
   + X_6,0,1 + X_7,0,1 + X_8,0,1 + X_9,0,1 - Z_0,1 = 0
 ArcOut_8,0: X_0,1,0 + X_1,1,0 + X_2,1,0 + X_3,1,0 + X_4,1,0 + X_5,1,0
   + X_6,1,0 + X_7,1,0 + X_8,1,0 + X_9,1,0 - Z_1,0 = 0
 ArcOut_8,1: X_0,1,1 + X_1,1,1 + X_2,1,1 + X_3,1,1 + X_4,1,1 + X_5,1,1
   + X_6,1,1 + X_7,1,1 + X_8,1,1 + X_9,1,1 - Z_1,1 = 0
 ArcOut_8,0: X_0,2,0 + X_1,2,0 + X_2,2,0 + X_3,2,0 + X_4,2,0 + X_5,2,0
   + X_6,2,0 + X_7,2,0 + X_8,2,0 + X_9,2,0 - Z_2,0 = 0
 ArcOut_8,1: X_0,2,1 + X_1,2,1 + X_2,2,1 + X_3,2,1 + X_4,2,1 + X_5,2,1
   + X_6,2,1 + X_7,2,1 + X_8,2,1 + X_9,2,1 - Z_2,1 = 0
 ArcOut_8,0: X_0,3,0 + X_1,3,0 + X_2,3,0 + X_3,3,0 + X_4,3,0 + X_5,3,0
   + X_6,3,0 + X_7,3,0 + X_8,3,0 + X_9,3,0 - Z_3,0 = 0
 ArcOut_8,1: X_0,3,1 + X_1,3,1 + X_2,3,1 + X_3,3,1 + X_4,3,1 + X_5,3,1
   + X_6,3,1 + X_7,3,1 + X_8,3,1 + X_9,3,1 - Z_3,1 = 0
 ArcOut_8,0: X_0,4,0 + X_1,4,0 + X_2,4,0 + X_3,4,0 + X_4,4,0 + X_5,4,0
   + X_6,4,0 + X_7,4,0 + X_8,4,0 + X_9,4,0 - Z_4,0 = 0
 ArcOut_8,1: X_0,4,1 + X_1,4,1 + X_2,4,1 + X_3,4,1 + X_4,4,1 + X_5,4,1
   + X_6,4,1 + X_7,4,1 + X_8,4,1 + X_9,4,1 - Z_4,1 = 0
 ArcOut_8,0: X_0,5,0 + X_1,5,0 + X_2,5,0 + X_3,5,0 + X_4,5,0 + X_5,5,0
   + X_6,5,0 + X_7,5,0 + X_8,5,0 + X_9,5,0 - Z_5,0 = 0
 ArcOut_8,1: X_0,5,1 + X_1,5,1 + X_2,5,1 + X_3,5,1 + X_4,5,1 + X_5,5,1
   + X_6,5,1 + X_7,5,1 + X_8,5,1 + X_9,5,1 - Z_5,1 = 0
 ArcOut_8,0: X_0,6,0 + X_1,6,0 + X_2,6,0 + X_3,6,0 + X_4,6,0 + X_5,6,0
   + X_6,6,0 + X_7,6,0 + X_8,6,0 + X_9,6,0 - Z_6,0 = 0
 ArcOut_8,1: X_0,6,1 + X_1,6,1 + X_2,6,1 + X_3,6,1 + X_4,6,1 + X_5,6,1
   + X_6,6,1 + X_7,6,1 + X_8,6,1 + X_9,6,1 - Z_6,1 = 0
 ArcOut_8,0: X_0,7,0 + X_1,7,0 + X_2,7,0 + X_3,7,0 + X_4,7,0 + X_5,7,0
   + X_6,7,0 + X_7,7,0 + X_8,7,0 + X_9,7,0 - Z_7,0 = 0
 ArcOut_8,1: X_0,7,1 + X_1,7,1 + X_2,7,1 + X_3,7,1 + X_4,7,1 + X_5,7,1
   + X_6,7,1 + X_7,7,1 + X_8,7,1 + X_9,7,1 - Z_7,1 = 0
 ArcOut_8,0: X_0,8,0 + X_1,8,0 + X_2,8,0 + X_3,8,0 + X_4,8,0 + X_5,8,0
   + X_6,8,0 + X_7,8,0 + X_8,8,0 + X_9,8,0 - Z_8,0 = 0
 ArcOut_8,1: X_0,8,1 + X_1,8,1 + X_2,8,1 + X_3,8,1 + X_4,8,1 + X_5,8,1
   + X_6,8,1 + X_7,8,1 + X_8,8,1 + X_9,8,1 - Z_8,1 = 0
 ArcOut_8,0: X_0,9,0 + X_1,9,0 + X_2,9,0 + X_3,9,0 + X_4,9,0 + X_5,9,0
   + X_6,9,0 + X_7,9,0 + X_8,9,0 + X_9,9,0 - Z_9,0 = 0
 ArcOut_8,1: X_0,9,1 + X_1,9,1 + X_2,9,1 + X_3,9,1 + X_4,9,1 + X_5,9,1
   + X_6,9,1 + X_7,9,1 + X_8,9,1 + X_9,9,1 - Z_9,1 = 0
 Capacity_0: 10 Z_1,0 + 30 Z_2,0 + 10 Z_3,0 + 10 Z_4,0 + 10 Z_5,0
   + 20 Z_6,0 + 20 Z_7,0 + 20 Z_8,0 <= 130
 Capacity_1: 10 Z_1,1 + 30 Z_2,1 + 10 Z_3,1 + 10 Z_4,1 + 10 Z_5,1
   + 20 Z_6,1 + 20 Z_7,1 + 20 Z_8,1 <= 130
 ready_0,0: T_0,0 >= 0
 end_0,0: T_0,0 <= 3390
 ready_0,1: T_0,1 >= 0
 end_0,1: T_0,1 <= 3390
 ready_1,0: T_1,0 >= 311
 end_1,0: T_1,0 <= 471
 ready_1,1: T_1,1 >= 311
 end_1,1: T_1,1 <= 471
 ready_2,0: T_2,0 >= 213
 end_2,0: T_2,0 <= 373
 ready_2,1: T_2,1 >= 213
 end_2,1: T_2,1 <= 373
 ready_3,0: T_3,0 >= 1167
 end_3,0: T_3,0 <= 1327
 ready_3,1: T_3,1 >= 1167
 end_3,1: T_3,1 <= 1327
 ready_4,0: T_4,0 >= 1261
 end_4,0: T_4,0 <= 1421
 ready_4,1: T_4,1 >= 1261
 end_4,1: T_4,1 <= 1421
 ready_5,0: T_5,0 >= 25
 end_5,0: T_5,0 <= 185
 ready_5,1: T_5,1 >= 25
 end_5,1: T_5,1 <= 185
 ready_6,0: T_6,0 >= 497
 end_6,0: T_6,0 <= 657
 ready_6,1: T_6,1 >= 497
 end_6,1: T_6,1 <= 657
 ready_7,0: T_7,0 >= 1073
 end_7,0: T_7,0 <= 1233
 ready_7,1: T_7,1 >= 1073
 end_7,1: T_7,1 <= 1233
 ready_8,0: T_8,0 >= 2887
 end_8,0: T_8,0 <= 3047
 ready_8,1: T_8,1 >= 2887
 end_8,1: T_8,1 <= 3047
 ready_9,0: T_9,0 >= 0
 end_9,0: T_9,0 <= 3390
 ready_9,1: T_9,1 >= 0
 end_9,1: T_9,1 <= 3390
 InTime_0,0,0: [ ] <= 0
 InTime_0,0,1: [ ] <= 0
 InTime_0,1,0: 27.73084924772409 X_0,1,0 + [ X_0,1,0 * T_0,0
   - X_0,1,0 * T_1,0 ] <= 0
 InTime_0,1,1: 27.73084924772409 X_0,1,1 + [ X_0,1,1 * T_0,1
   - X_0,1,1 * T_1,1 ] <= 0
 InTime_0,2,0: 20.6155281280883 X_0,2,0 + [ X_0,2,0 * T_0,0
   - X_0,2,0 * T_2,0 ] <= 0
 InTime_0,2,1: 20.6155281280883 X_0,2,1 + [ X_0,2,1 * T_0,1
   - X_0,2,1 * T_2,1 ] <= 0
 InTime_0,3,0: 29.06888370749727 X_0,3,0 + [ X_0,3,0 * T_0,0
   - X_0,3,0 * T_3,0 ] <= 0
 InTime_0,3,1: 29.06888370749727 X_0,3,1 + [ X_0,3,1 * T_0,1
   - X_0,3,1 * T_3,1 ] <= 0
 InTime_0,4,0: 25.61249694973139 X_0,4,0 + [ X_0,4,0 * T_0,0
   - X_0,4,0 * T_4,0 ] <= 0
 InTime_0,4,1: 25.61249694973139 X_0,4,1 + [ X_0,4,1 * T_0,1
   - X_0,4,1 * T_4,1 ] <= 0
 InTime_0,5,0: 15.13274595042156 X_0,5,0 + [ X_0,5,0 * T_0,0
   - X_0,5,0 * T_5,0 ] <= 0
 InTime_0,5,1: 15.13274595042156 X_0,5,1 + [ X_0,5,1 * T_0,1
   - X_0,5,1 * T_5,1 ] <= 0
 InTime_0,6,0: 25.29822128134704 X_0,6,0 + [ X_0,6,0 * T_0,0
   - X_0,6,0 * T_6,0 ] <= 0
 InTime_0,6,1: 25.29822128134704 X_0,6,1 + [ X_0,6,1 * T_0,1
   - X_0,6,1 * T_6,1 ] <= 0
 InTime_0,7,0: 26.90724809414742 X_0,7,0 + [ X_0,7,0 * T_0,0
   - X_0,7,0 * T_7,0 ] <= 0
 InTime_0,7,1: 26.90724809414742 X_0,7,1 + [ X_0,7,1 * T_0,1
   - X_0,7,1 * T_7,1 ] <= 0
 InTime_0,8,0: 11.6619037896906 X_0,8,0 + [ X_0,8,0 * T_0,0
   - X_0,8,0 * T_8,0 ] <= 0
 InTime_0,8,1: 11.6619037896906 X_0,8,1 + [ X_0,8,1 * T_0,1
   - X_0,8,1 * T_8,1 ] <= 0
 InTime_0,9,0: [ X_0,9,0 * T_0,0 - X_0,9,0 * T_9,0 ] <= 0
 InTime_0,9,1: [ X_0,9,1 * T_0,1 - X_0,9,1 * T_9,1 ] <= 0
 InTime_1,0,0: 117.7308492477241 X_1,0,0 + [ - X_1,0,0 * T_0,0
   + X_1,0,0 * T_1,0 ] <= 0
 InTime_1,0,1: 117.7308492477241 X_1,0,1 + [ - X_1,0,1 * T_0,1
   + X_1,0,1 * T_1,1 ] <= 0
 InTime_1,1,0: 90 X_1,1,0 + [ ] <= 0
 InTime_1,1,1: 90 X_1,1,1 + [ ] <= 0
 InTime_1,2,0: 98.60232526704263 X_1,2,0 + [ X_1,2,0 * T_1,0
   - X_1,2,0 * T_2,0 ] <= 0
 InTime_1,2,1: 98.60232526704263 X_1,2,1 + [ X_1,2,1 * T_1,1
   - X_1,2,1 * T_2,1 ] <= 0
 InTime_1,3,0: 101.6619037896906 X_1,3,0 + [ X_1,3,0 * T_1,0
   - X_1,3,0 * T_3,0 ] <= 0
 InTime_1,3,1: 101.6619037896906 X_1,3,1 + [ X_1,3,1 * T_1,1
   - X_1,3,1 * T_3,1 ] <= 0
 InTime_1,4,0: 102.0415945787923 X_1,4,0 + [ X_1,4,0 * T_1,0
   - X_1,4,0 * T_4,0 ] <= 0
 InTime_1,4,1: 102.0415945787923 X_1,4,1 + [ X_1,4,1 * T_1,1
   - X_1,4,1 * T_4,1 ] <= 0
 InTime_1,5,0: 104.142135623731 X_1,5,0 + [ X_1,5,0 * T_1,0
   - X_1,5,0 * T_5,0 ] <= 0
 InTime_1,5,1: 104.142135623731 X_1,5,1 + [ X_1,5,1 * T_1,1
   - X_1,5,1 * T_5,1 ] <= 0
 InTime_1,6,0: 138.8364617882991 X_1,6,0 + [ X_1,6,0 * T_1,0
   - X_1,6,0 * T_6,0 ] <= 0
 InTime_1,6,1: 138.8364617882991 X_1,6,1 + [ X_1,6,1 * T_1,1
   - X_1,6,1 * T_6,1 ] <= 0
 InTime_1,7,0: 97.81024967590665 X_1,7,0 + [ X_1,7,0 * T_1,0
   - X_1,7,0 * T_7,0 ] <= 0
 InTime_1,7,1: 97.81024967590665 X_1,7,1 + [ X_1,7,1 * T_1,1
   - X_1,7,1 * T_7,1 ] <= 0
 InTime_1,8,0: 113.43074902772 X_1,8,0 + [ X_1,8,0 * T_1,0
   - X_1,8,0 * T_8,0 ] <= 0
 InTime_1,8,1: 113.43074902772 X_1,8,1 + [ X_1,8,1 * T_1,1
   - X_1,8,1 * T_8,1 ] <= 0
 InTime_1,9,0: 117.7308492477241 X_1,9,0 + [ X_1,9,0 * T_1,0
   - X_1,9,0 * T_9,0 ] <= 0
 InTime_1,9,1: 117.7308492477241 X_1,9,1 + [ X_1,9,1 * T_1,1
   - X_1,9,1 * T_9,1 ] <= 0
 InTime_2,0,0: 110.6155281280883 X_2,0,0 + [ - X_2,0,0 * T_0,0
   + X_2,0,0 * T_2,0 ] <= 0
 InTime_2,0,1: 110.6155281280883 X_2,0,1 + [ - X_2,0,1 * T_0,1
   + X_2,0,1 * T_2,1 ] <= 0
 InTime_2,1,0: 98.60232526704263 X_2,1,0 + [ - X_2,1,0 * T_1,0
   + X_2,1,0 * T_2,0 ] <= 0
 InTime_2,1,1: 98.60232526704263 X_2,1,1 + [ - X_2,1,1 * T_1,1
   + X_2,1,1 * T_2,1 ] <= 0
 InTime_2,2,0: 90 X_2,2,0 + [ ] <= 0
 InTime_2,2,1: 90 X_2,2,1 + [ ] <= 0
 InTime_2,3,0: 107.0293863659264 X_2,3,0 + [ X_2,3,0 * T_2,0
   - X_2,3,0 * T_3,0 ] <= 0
 InTime_2,3,1: 107.0293863659264 X_2,3,1 + [ X_2,3,1 * T_2,1
   - X_2,3,1 * T_3,1 ] <= 0
 InTime_2,4,0: 105.52417469626 X_2,4,0 + [ X_2,4,0 * T_2,0
   - X_2,4,0 * T_4,0 ] <= 0
 InTime_2,4,1: 105.52417469626 X_2,4,1 + [ X_2,4,1 * T_2,1
   - X_2,4,1 * T_4,1 ] <= 0
 InTime_2,5,0: 95.8309518948453 X_2,5,0 + [ X_2,5,0 * T_2,0
   - X_2,5,0 * T_5,0 ] <= 0
 InTime_2,5,1: 95.8309518948453 X_2,5,1 + [ X_2,5,1 * T_2,1
   - X_2,5,1 * T_5,1 ] <= 0
 InTime_2,6,0: 130.3112887414927 X_2,6,0 + [ X_2,6,0 * T_2,0
   - X_2,6,0 * T_6,0 ] <= 0
 InTime_2,6,1: 130.3112887414927 X_2,6,1 + [ X_2,6,1 * T_2,1
   - X_2,6,1 * T_6,1 ] <= 0
 InTime_2,7,0: 103 X_2,7,0 + [ X_2,7,0 * T_2,0 - X_2,7,0 * T_7,0 ] <= 0
 InTime_2,7,1: 103 X_2,7,1 + [ X_2,7,1 * T_2,1 - X_2,7,1 * T_7,1 ] <= 0
 InTime_2,8,0: 104.8660687473185 X_2,8,0 + [ X_2,8,0 * T_2,0
   - X_2,8,0 * T_8,0 ] <= 0
 InTime_2,8,1: 104.8660687473185 X_2,8,1 + [ X_2,8,1 * T_2,1
   - X_2,8,1 * T_8,1 ] <= 0
 InTime_2,9,0: 110.6155281280883 X_2,9,0 + [ X_2,9,0 * T_2,0
   - X_2,9,0 * T_9,0 ] <= 0
 InTime_2,9,1: 110.6155281280883 X_2,9,1 + [ X_2,9,1 * T_2,1
   - X_2,9,1 * T_9,1 ] <= 0
 InTime_3,0,0: 119.0688837074973 X_3,0,0 + [ - X_3,0,0 * T_0,0
   + X_3,0,0 * T_3,0 ] <= 0
 InTime_3,0,1: 119.0688837074973 X_3,0,1 + [ - X_3,0,1 * T_0,1
   + X_3,0,1 * T_3,1 ] <= 0
 InTime_3,1,0: 101.6619037896906 X_3,1,0 + [ - X_3,1,0 * T_1,0
   + X_3,1,0 * T_3,0 ] <= 0
 InTime_3,1,1: 101.6619037896906 X_3,1,1 + [ - X_3,1,1 * T_1,1
   + X_3,1,1 * T_3,1 ] <= 0
 InTime_3,2,0: 107.0293863659264 X_3,2,0 + [ - X_3,2,0 * T_2,0
   + X_3,2,0 * T_3,0 ] <= 0
 InTime_3,2,1: 107.0293863659264 X_3,2,1 + [ - X_3,2,1 * T_2,1
   + X_3,2,1 * T_3,1 ] <= 0
 InTime_3,3,0: 90 X_3,3,0 + [ ] <= 0
 InTime_3,3,1: 90 X_3,3,1 + [ ] <= 0
 InTime_3,4,0: 93.60555127546399 X_3,4,0 + [ X_3,4,0 * T_3,0
   - X_3,4,0 * T_4,0 ] <= 0
 InTime_3,4,1: 93.60555127546399 X_3,4,1 + [ X_3,4,1 * T_3,1
   - X_3,4,1 * T_4,1 ] <= 0
 InTime_3,5,0: 110.3960780543711 X_3,5,0 + [ X_3,5,0 * T_3,0
   - X_3,5,0 * T_5,0 ] <= 0
 InTime_3,5,1: 110.3960780543711 X_3,5,1 + [ X_3,5,1 * T_3,1
   - X_3,5,1 * T_5,1 ] <= 0
 InTime_3,6,0: 143.3385414123783 X_3,6,0 + [ X_3,6,0 * T_3,0
   - X_3,6,0 * T_6,0 ] <= 0
 InTime_3,6,1: 143.3385414123783 X_3,6,1 + [ X_3,6,1 * T_3,1
   - X_3,6,1 * T_6,1 ] <= 0
 InTime_3,7,0: 94.12310562561765 X_3,7,0 + [ X_3,7,0 * T_3,0
   - X_3,7,0 * T_7,0 ] <= 0
 InTime_3,7,1: 94.12310562561765 X_3,7,1 + [ X_3,7,1 * T_3,1
   - X_3,7,1 * T_7,1 ] <= 0
 InTime_3,8,0: 119.4108823397055 X_3,8,0 + [ X_3,8,0 * T_3,0
   - X_3,8,0 * T_8,0 ] <= 0
 InTime_3,8,1: 119.4108823397055 X_3,8,1 + [ X_3,8,1 * T_3,1
   - X_3,8,1 * T_8,1 ] <= 0
 InTime_3,9,0: 119.0688837074973 X_3,9,0 + [ X_3,9,0 * T_3,0
   - X_3,9,0 * T_9,0 ] <= 0
 InTime_3,9,1: 119.0688837074973 X_3,9,1 + [ X_3,9,1 * T_3,1
   - X_3,9,1 * T_9,1 ] <= 0
 InTime_4,0,0: 115.6124969497314 X_4,0,0 + [ - X_4,0,0 * T_0,0
   + X_4,0,0 * T_4,0 ] <= 0
 InTime_4,0,1: 115.6124969497314 X_4,0,1 + [ - X_4,0,1 * T_0,1
   + X_4,0,1 * T_4,1 ] <= 0
 InTime_4,1,0: 102.0415945787923 X_4,1,0 + [ - X_4,1,0 * T_1,0
   + X_4,1,0 * T_4,0 ] <= 0
 InTime_4,1,1: 102.0415945787923 X_4,1,1 + [ - X_4,1,1 * T_1,1
   + X_4,1,1 * T_4,1 ] <= 0
 InTime_4,2,0: 105.52417469626 X_4,2,0 + [ - X_4,2,0 * T_2,0
   + X_4,2,0 * T_4,0 ] <= 0
 InTime_4,2,1: 105.52417469626 X_4,2,1 + [ - X_4,2,1 * T_2,1
   + X_4,2,1 * T_4,1 ] <= 0
 InTime_4,3,0: 93.60555127546399 X_4,3,0 + [ - X_4,3,0 * T_3,0
   + X_4,3,0 * T_4,0 ] <= 0
 InTime_4,3,1: 93.60555127546399 X_4,3,1 + [ - X_4,3,1 * T_3,1
   + X_4,3,1 * T_4,1 ] <= 0
 InTime_4,4,0: 90 X_4,4,0 + [ ] <= 0
 InTime_4,4,1: 90 X_4,4,1 + [ ] <= 0
 InTime_4,5,0: 108.0277563773199 X_4,5,0 + [ X_4,5,0 * T_4,0
   - X_4,5,0 * T_5,0 ] <= 0
 InTime_4,5,1: 108.0277563773199 X_4,5,1 + [ X_4,5,1 * T_4,1
   - X_4,5,1 * T_5,1 ] <= 0
 InTime_4,6,0: 140.1198563445667 X_4,6,0 + [ X_4,6,0 * T_4,0
   - X_4,6,0 * T_6,0 ] <= 0
 InTime_4,6,1: 140.1198563445667 X_4,6,1 + [ X_4,6,1 * T_4,1
   - X_4,6,1 * T_6,1 ] <= 0
 InTime_4,7,0: 94.47213595499957 X_4,7,0 + [ X_4,7,0 * T_4,0
   - X_4,7,0 * T_7,0 ] <= 0
 InTime_4,7,1: 94.47213595499957 X_4,7,1 + [ X_4,7,1 * T_4,1
   - X_4,7,1 * T_7,1 ] <= 0
 InTime_4,8,0: 116.6833281282527 X_4,8,0 + [ X_4,8,0 * T_4,0
   - X_4,8,0 * T_8,0 ] <= 0
 InTime_4,8,1: 116.6833281282527 X_4,8,1 + [ X_4,8,1 * T_4,1
   - X_4,8,1 * T_8,1 ] <= 0
 InTime_4,9,0: 115.6124969497314 X_4,9,0 + [ X_4,9,0 * T_4,0
   - X_4,9,0 * T_9,0 ] <= 0
 InTime_4,9,1: 115.6124969497314 X_4,9,1 + [ X_4,9,1 * T_4,1
   - X_4,9,1 * T_9,1 ] <= 0
 InTime_5,0,0: 105.1327459504216 X_5,0,0 + [ - X_5,0,0 * T_0,0
   + X_5,0,0 * T_5,0 ] <= 0
 InTime_5,0,1: 105.1327459504216 X_5,0,1 + [ - X_5,0,1 * T_0,1
   + X_5,0,1 * T_5,1 ] <= 0
 InTime_5,1,0: 104.142135623731 X_5,1,0 + [ - X_5,1,0 * T_1,0
   + X_5,1,0 * T_5,0 ] <= 0
 InTime_5,1,1: 104.142135623731 X_5,1,1 + [ - X_5,1,1 * T_1,1
   + X_5,1,1 * T_5,1 ] <= 0
 InTime_5,2,0: 95.8309518948453 X_5,2,0 + [ - X_5,2,0 * T_2,0
   + X_5,2,0 * T_5,0 ] <= 0
 InTime_5,2,1: 95.8309518948453 X_5,2,1 + [ - X_5,2,1 * T_2,1
   + X_5,2,1 * T_5,1 ] <= 0
 InTime_5,3,0: 110.3960780543711 X_5,3,0 + [ - X_5,3,0 * T_3,0
   + X_5,3,0 * T_5,0 ] <= 0
 InTime_5,3,1: 110.3960780543711 X_5,3,1 + [ - X_5,3,1 * T_3,1
   + X_5,3,1 * T_5,1 ] <= 0
 InTime_5,4,0: 108.0277563773199 X_5,4,0 + [ - X_5,4,0 * T_4,0
   + X_5,4,0 * T_5,0 ] <= 0
 InTime_5,4,1: 108.0277563773199 X_5,4,1 + [ - X_5,4,1 * T_4,1
   + X_5,4,1 * T_5,1 ] <= 0
 InTime_5,5,0: 90 X_5,5,0 + [ ] <= 0
 InTime_5,5,1: 90 X_5,5,1 + [ ] <= 0
 InTime_5,6,0: 124.7131099154196 X_5,6,0 + [ X_5,6,0 * T_5,0
   - X_5,6,0 * T_6,0 ] <= 0
 InTime_5,6,1: 124.7131099154196 X_5,6,1 + [ X_5,6,1 * T_5,1
   - X_5,6,1 * T_6,1 ] <= 0
 InTime_5,7,0: 106.7630546142402 X_5,7,0 + [ X_5,7,0 * T_5,0
   - X_5,7,0 * T_7,0 ] <= 0
 InTime_5,7,1: 106.7630546142402 X_5,7,1 + [ X_5,7,1 * T_5,1
   - X_5,7,1 * T_7,1 ] <= 0
 InTime_5,8,0: 99.4339811320566 X_5,8,0 + [ X_5,8,0 * T_5,0
   - X_5,8,0 * T_8,0 ] <= 0
 InTime_5,8,1: 99.4339811320566 X_5,8,1 + [ X_5,8,1 * T_5,1
   - X_5,8,1 * T_8,1 ] <= 0
 InTime_5,9,0: 105.1327459504216 X_5,9,0 + [ X_5,9,0 * T_5,0
   - X_5,9,0 * T_9,0 ] <= 0
 InTime_5,9,1: 105.1327459504216 X_5,9,1 + [ X_5,9,1 * T_5,1
   - X_5,9,1 * T_9,1 ] <= 0
 InTime_6,0,0: 115.298221281347 X_6,0,0 + [ - X_6,0,0 * T_0,0
   + X_6,0,0 * T_6,0 ] <= 0
 InTime_6,0,1: 115.298221281347 X_6,0,1 + [ - X_6,0,1 * T_0,1
   + X_6,0,1 * T_6,1 ] <= 0
 InTime_6,1,0: 138.8364617882991 X_6,1,0 + [ - X_6,1,0 * T_1,0
   + X_6,1,0 * T_6,0 ] <= 0
 InTime_6,1,1: 138.8364617882991 X_6,1,1 + [ - X_6,1,1 * T_1,1
   + X_6,1,1 * T_6,1 ] <= 0
 InTime_6,2,0: 130.3112887414927 X_6,2,0 + [ - X_6,2,0 * T_2,0
   + X_6,2,0 * T_6,0 ] <= 0
 InTime_6,2,1: 130.3112887414927 X_6,2,1 + [ - X_6,2,1 * T_2,1
   + X_6,2,1 * T_6,1 ] <= 0
 InTime_6,3,0: 143.3385414123783 X_6,3,0 + [ - X_6,3,0 * T_3,0
   + X_6,3,0 * T_6,0 ] <= 0
 InTime_6,3,1: 143.3385414123783 X_6,3,1 + [ - X_6,3,1 * T_3,1
   + X_6,3,1 * T_6,1 ] <= 0
 InTime_6,4,0: 140.1198563445667 X_6,4,0 + [ - X_6,4,0 * T_4,0
   + X_6,4,0 * T_6,0 ] <= 0
 InTime_6,4,1: 140.1198563445667 X_6,4,1 + [ - X_6,4,1 * T_4,1
   + X_6,4,1 * T_6,1 ] <= 0
 InTime_6,5,0: 124.7131099154196 X_6,5,0 + [ - X_6,5,0 * T_5,0
   + X_6,5,0 * T_6,0 ] <= 0
 InTime_6,5,1: 124.7131099154196 X_6,5,1 + [ - X_6,5,1 * T_5,1
   + X_6,5,1 * T_6,1 ] <= 0
 InTime_6,6,0: 90 X_6,6,0 + [ ] <= 0
 InTime_6,6,1: 90 X_6,6,1 + [ ] <= 0
 InTime_6,7,0: 140.4777178564958 X_6,7,0 + [ X_6,7,0 * T_6,0
   - X_6,7,0 * T_7,0 ] <= 0
 InTime_6,7,1: 140.4777178564958 X_6,7,1 + [ X_6,7,1 * T_6,1
   - X_6,7,1 * T_7,1 ] <= 0
 InTime_6,8,0: 115.4558441227157 X_6,8,0 + [ X_6,8,0 * T_6,0
   - X_6,8,0 * T_8,0 ] <= 0
 InTime_6,8,1: 115.4558441227157 X_6,8,1 + [ X_6,8,1 * T_6,1
   - X_6,8,1 * T_8,1 ] <= 0
 InTime_6,9,0: 115.298221281347 X_6,9,0 + [ X_6,9,0 * T_6,0
   - X_6,9,0 * T_9,0 ] <= 0
 InTime_6,9,1: 115.298221281347 X_6,9,1 + [ X_6,9,1 * T_6,1
   - X_6,9,1 * T_9,1 ] <= 0
 InTime_7,0,0: 116.9072480941474 X_7,0,0 + [ - X_7,0,0 * T_0,0
   + X_7,0,0 * T_7,0 ] <= 0
 InTime_7,0,1: 116.9072480941474 X_7,0,1 + [ - X_7,0,1 * T_0,1
   + X_7,0,1 * T_7,1 ] <= 0
 InTime_7,1,0: 97.81024967590665 X_7,1,0 + [ - X_7,1,0 * T_1,0
   + X_7,1,0 * T_7,0 ] <= 0
 InTime_7,1,1: 97.81024967590665 X_7,1,1 + [ - X_7,1,1 * T_1,1
   + X_7,1,1 * T_7,1 ] <= 0
 InTime_7,2,0: 103 X_7,2,0 + [ - X_7,2,0 * T_2,0 + X_7,2,0 * T_7,0 ] <= 0
 InTime_7,2,1: 103 X_7,2,1 + [ - X_7,2,1 * T_2,1 + X_7,2,1 * T_7,1 ] <= 0
 InTime_7,3,0: 94.12310562561765 X_7,3,0 + [ - X_7,3,0 * T_3,0
   + X_7,3,0 * T_7,0 ] <= 0
 InTime_7,3,1: 94.12310562561765 X_7,3,1 + [ - X_7,3,1 * T_3,1
   + X_7,3,1 * T_7,1 ] <= 0
 InTime_7,4,0: 94.47213595499957 X_7,4,0 + [ - X_7,4,0 * T_4,0
   + X_7,4,0 * T_7,0 ] <= 0
 InTime_7,4,1: 94.47213595499957 X_7,4,1 + [ - X_7,4,1 * T_4,1
   + X_7,4,1 * T_7,1 ] <= 0
 InTime_7,5,0: 106.7630546142402 X_7,5,0 + [ - X_7,5,0 * T_5,0
   + X_7,5,0 * T_7,0 ] <= 0
 InTime_7,5,1: 106.7630546142402 X_7,5,1 + [ - X_7,5,1 * T_5,1
   + X_7,5,1 * T_7,1 ] <= 0
 InTime_7,6,0: 140.4777178564958 X_7,6,0 + [ - X_7,6,0 * T_6,0
   + X_7,6,0 * T_7,0 ] <= 0
 InTime_7,6,1: 140.4777178564958 X_7,6,1 + [ - X_7,6,1 * T_6,1
   + X_7,6,1 * T_7,1 ] <= 0
 InTime_7,7,0: 90 X_7,7,0 + [ ] <= 0
 InTime_7,7,1: 90 X_7,7,1 + [ ] <= 0
 InTime_7,8,0: 116 X_7,8,0 + [ X_7,8,0 * T_7,0 - X_7,8,0 * T_8,0 ] <= 0
 InTime_7,8,1: 116 X_7,8,1 + [ X_7,8,1 * T_7,1 - X_7,8,1 * T_8,1 ] <= 0
 InTime_7,9,0: 116.9072480941474 X_7,9,0 + [ X_7,9,0 * T_7,0
   - X_7,9,0 * T_9,0 ] <= 0
 InTime_7,9,1: 116.9072480941474 X_7,9,1 + [ X_7,9,1 * T_7,1
   - X_7,9,1 * T_9,1 ] <= 0
 InTime_8,0,0: 101.6619037896906 X_8,0,0 + [ - X_8,0,0 * T_0,0
   + X_8,0,0 * T_8,0 ] <= 0
 InTime_8,0,1: 101.6619037896906 X_8,0,1 + [ - X_8,0,1 * T_0,1
   + X_8,0,1 * T_8,1 ] <= 0
 InTime_8,1,0: 113.43074902772 X_8,1,0 + [ - X_8,1,0 * T_1,0
   + X_8,1,0 * T_8,0 ] <= 0
 InTime_8,1,1: 113.43074902772 X_8,1,1 + [ - X_8,1,1 * T_1,1
   + X_8,1,1 * T_8,1 ] <= 0
 InTime_8,2,0: 104.8660687473185 X_8,2,0 + [ - X_8,2,0 * T_2,0
   + X_8,2,0 * T_8,0 ] <= 0
 InTime_8,2,1: 104.8660687473185 X_8,2,1 + [ - X_8,2,1 * T_2,1
   + X_8,2,1 * T_8,1 ] <= 0
 InTime_8,3,0: 119.4108823397055 X_8,3,0 + [ - X_8,3,0 * T_3,0
   + X_8,3,0 * T_8,0 ] <= 0
 InTime_8,3,1: 119.4108823397055 X_8,3,1 + [ - X_8,3,1 * T_3,1
   + X_8,3,1 * T_8,1 ] <= 0
 InTime_8,4,0: 116.6833281282527 X_8,4,0 + [ - X_8,4,0 * T_4,0
   + X_8,4,0 * T_8,0 ] <= 0
 InTime_8,4,1: 116.6833281282527 X_8,4,1 + [ - X_8,4,1 * T_4,1
   + X_8,4,1 * T_8,1 ] <= 0
 InTime_8,5,0: 99.4339811320566 X_8,5,0 + [ - X_8,5,0 * T_5,0
   + X_8,5,0 * T_8,0 ] <= 0
 InTime_8,5,1: 99.4339811320566 X_8,5,1 + [ - X_8,5,1 * T_5,1
   + X_8,5,1 * T_8,1 ] <= 0
 InTime_8,6,0: 115.4558441227157 X_8,6,0 + [ - X_8,6,0 * T_6,0
   + X_8,6,0 * T_8,0 ] <= 0
 InTime_8,6,1: 115.4558441227157 X_8,6,1 + [ - X_8,6,1 * T_6,1
   + X_8,6,1 * T_8,1 ] <= 0
 InTime_8,7,0: 116 X_8,7,0 + [ - X_8,7,0 * T_7,0 + X_8,7,0 * T_8,0 ] <= 0
 InTime_8,7,1: 116 X_8,7,1 + [ - X_8,7,1 * T_7,1 + X_8,7,1 * T_8,1 ] <= 0
 InTime_8,8,0: 90 X_8,8,0 + [ ] <= 0
 InTime_8,8,1: 90 X_8,8,1 + [ ] <= 0
 InTime_8,9,0: 101.6619037896906 X_8,9,0 + [ X_8,9,0 * T_8,0
   - X_8,9,0 * T_9,0 ] <= 0
 InTime_8,9,1: 101.6619037896906 X_8,9,1 + [ X_8,9,1 * T_8,1
   - X_8,9,1 * T_9,1 ] <= 0
 InTime_9,0,0: [ - X_9,0,0 * T_0,0 + X_9,0,0 * T_9,0 ] <= 0
 InTime_9,0,1: [ - X_9,0,1 * T_0,1 + X_9,0,1 * T_9,1 ] <= 0
 InTime_9,1,0: 27.73084924772409 X_9,1,0 + [ - X_9,1,0 * T_1,0
   + X_9,1,0 * T_9,0 ] <= 0
 InTime_9,1,1: 27.73084924772409 X_9,1,1 + [ - X_9,1,1 * T_1,1
   + X_9,1,1 * T_9,1 ] <= 0
 InTime_9,2,0: 20.6155281280883 X_9,2,0 + [ - X_9,2,0 * T_2,0
   + X_9,2,0 * T_9,0 ] <= 0
 InTime_9,2,1: 20.6155281280883 X_9,2,1 + [ - X_9,2,1 * T_2,1
   + X_9,2,1 * T_9,1 ] <= 0
 InTime_9,3,0: 29.06888370749727 X_9,3,0 + [ - X_9,3,0 * T_3,0
   + X_9,3,0 * T_9,0 ] <= 0
 InTime_9,3,1: 29.06888370749727 X_9,3,1 + [ - X_9,3,1 * T_3,1
   + X_9,3,1 * T_9,1 ] <= 0
 InTime_9,4,0: 25.61249694973139 X_9,4,0 + [ - X_9,4,0 * T_4,0
   + X_9,4,0 * T_9,0 ] <= 0
 InTime_9,4,1: 25.61249694973139 X_9,4,1 + [ - X_9,4,1 * T_4,1
   + X_9,4,1 * T_9,1 ] <= 0
 InTime_9,5,0: 15.13274595042156 X_9,5,0 + [ - X_9,5,0 * T_5,0
   + X_9,5,0 * T_9,0 ] <= 0
 InTime_9,5,1: 15.13274595042156 X_9,5,1 + [ - X_9,5,1 * T_5,1
   + X_9,5,1 * T_9,1 ] <= 0
 InTime_9,6,0: 25.29822128134704 X_9,6,0 + [ - X_9,6,0 * T_6,0
   + X_9,6,0 * T_9,0 ] <= 0
 InTime_9,6,1: 25.29822128134704 X_9,6,1 + [ - X_9,6,1 * T_6,1
   + X_9,6,1 * T_9,1 ] <= 0
 InTime_9,7,0: 26.90724809414742 X_9,7,0 + [ - X_9,7,0 * T_7,0
   + X_9,7,0 * T_9,0 ] <= 0
 InTime_9,7,1: 26.90724809414742 X_9,7,1 + [ - X_9,7,1 * T_7,1
   + X_9,7,1 * T_9,1 ] <= 0
 InTime_9,8,0: 11.6619037896906 X_9,8,0 + [ - X_9,8,0 * T_8,0
   + X_9,8,0 * T_9,0 ] <= 0
 InTime_9,8,1: 11.6619037896906 X_9,8,1 + [ - X_9,8,1 * T_8,1
   + X_9,8,1 * T_9,1 ] <= 0
 InTime_9,9,0: [ ] <= 0
 InTime_9,9,1: [ ] <= 0
Bounds
Binaries
 X_0,0,0 X_0,0,1 X_0,1,0 X_0,1,1 X_0,2,0 X_0,2,1 X_0,3,0 X_0,3,1 X_0,4,0
 X_0,4,1 X_0,5,0 X_0,5,1 X_0,6,0 X_0,6,1 X_0,7,0 X_0,7,1 X_0,8,0 X_0,8,1
 X_0,9,0 X_0,9,1 X_1,0,0 X_1,0,1 X_1,1,0 X_1,1,1 X_1,2,0 X_1,2,1 X_1,3,0
 X_1,3,1 X_1,4,0 X_1,4,1 X_1,5,0 X_1,5,1 X_1,6,0 X_1,6,1 X_1,7,0 X_1,7,1
 X_1,8,0 X_1,8,1 X_1,9,0 X_1,9,1 X_2,0,0 X_2,0,1 X_2,1,0 X_2,1,1 X_2,2,0
 X_2,2,1 X_2,3,0 X_2,3,1 X_2,4,0 X_2,4,1 X_2,5,0 X_2,5,1 X_2,6,0 X_2,6,1
 X_2,7,0 X_2,7,1 X_2,8,0 X_2,8,1 X_2,9,0 X_2,9,1 X_3,0,0 X_3,0,1 X_3,1,0
 X_3,1,1 X_3,2,0 X_3,2,1 X_3,3,0 X_3,3,1 X_3,4,0 X_3,4,1 X_3,5,0 X_3,5,1
 X_3,6,0 X_3,6,1 X_3,7,0 X_3,7,1 X_3,8,0 X_3,8,1 X_3,9,0 X_3,9,1 X_4,0,0
 X_4,0,1 X_4,1,0 X_4,1,1 X_4,2,0 X_4,2,1 X_4,3,0 X_4,3,1 X_4,4,0 X_4,4,1
 X_4,5,0 X_4,5,1 X_4,6,0 X_4,6,1 X_4,7,0 X_4,7,1 X_4,8,0 X_4,8,1 X_4,9,0
 X_4,9,1 X_5,0,0 X_5,0,1 X_5,1,0 X_5,1,1 X_5,2,0 X_5,2,1 X_5,3,0 X_5,3,1
 X_5,4,0 X_5,4,1 X_5,5,0 X_5,5,1 X_5,6,0 X_5,6,1 X_5,7,0 X_5,7,1 X_5,8,0
 X_5,8,1 X_5,9,0 X_5,9,1 X_6,0,0 X_6,0,1 X_6,1,0 X_6,1,1 X_6,2,0 X_6,2,1
 X_6,3,0 X_6,3,1 X_6,4,0 X_6,4,1 X_6,5,0 X_6,5,1 X_6,6,0 X_6,6,1 X_6,7,0
 X_6,7,1 X_6,8,0 X_6,8,1 X_6,9,0 X_6,9,1 X_7,0,0 X_7,0,1 X_7,1,0 X_7,1,1
 X_7,2,0 X_7,2,1 X_7,3,0 X_7,3,1 X_7,4,0 X_7,4,1 X_7,5,0 X_7,5,1 X_7,6,0
 X_7,6,1 X_7,7,0 X_7,7,1 X_7,8,0 X_7,8,1 X_7,9,0 X_7,9,1 X_8,0,0 X_8,0,1
 X_8,1,0 X_8,1,1 X_8,2,0 X_8,2,1 X_8,3,0 X_8,3,1 X_8,4,0 X_8,4,1 X_8,5,0
 X_8,5,1 X_8,6,0 X_8,6,1 X_8,7,0 X_8,7,1 X_8,8,0 X_8,8,1 X_8,9,0 X_8,9,1
 X_9,0,0 X_9,0,1 X_9,1,0 X_9,1,1 X_9,2,0 X_9,2,1 X_9,3,0 X_9,3,1 X_9,4,0
 X_9,4,1 X_9,5,0 X_9,5,1 X_9,6,0 X_9,6,1 X_9,7,0 X_9,7,1 X_9,8,0 X_9,8,1
 X_9,9,0 X_9,9,1 Z_0,0 Z_0,1 Z_1,0 Z_1,1 Z_2,0 Z_2,1 Z_3,0 Z_3,1 Z_4,0
 Z_4,1 Z_5,0 Z_5,1 Z_6,0 Z_6,1 Z_7,0 Z_7,1 Z_8,0 Z_8,1 Z_9,0 Z_9,1
End
